Route #1: 30 85 11 79
Route #2: 63 77 3
Route #3: 92 9 86
Route #4: 34 64 96 48 26 47 38
Route #5: 1 70 54
Route #6: 50 91 52
Route #7: 93 75
Route #8: 20 41 22 15
Route #9: 19 97 27
Route #10: 32 33 53 73 95 24
Route #11: 59 60 82
Route #12: 57 72 36 29 43 45 2 7
Route #13: 66 84 90 68
Route #14: 100 61 23
Route #15: 28 42 78 65 25
Route #16: 80 94 56 21
Route #17: 14 49 6 37 87
Route #18: 89 98 99 62 71
Route #19: 83 51 81
Route #20: 8 17
Route #21: 74 13 4
Route #22: 76 55 16 69
Route #23: 58 12 5
Route #24: 18 10 39
Route #25: 44 67 88 40
Route #26: 35 46 31
Cost 27591.0000
Time 16.0001